[846, 867, 856, 826, 840, 854, 846, 843, 835, 827, 1689, 1671, 1709, 1716, 1717, 1649, 1659, 1676, 1686, 1696, 3331, 3370, 3364, 3372, 3357, 3414, 3347, 3398, 3387, 3382, 6753, 6813, 6755, 6757, 6830, 6763, 6787, 6737, 6749, 6711, 13511, 13516, 13536, 13463, 13503, 13477, 13554, 13520, 13565, 13494]
